NAME: random_30_9
TYPE: TSP
COMMENT: random_30_9
DIMENSION: 30
EDGE_WEIGHT_TYPE: EUC_2D
NODE_COORD_SECTION
1 7 293
2 374 56
3 99 64
4 155 100
5 260 88
6 30 462
7 301 338
8 38 130
9 87 324
10 484 33
11 346 307
12 58 8
13 120 255
14 345 115
15 218 414
16 214 310
17 14 279
18 202 400
19 277 432
20 326 172
21 353 191
22 240 60
23 136 411
24 376 76
25 250 460
26 74 477
27 200 372
28 49 284
29 107 276
30 18 18
